<number of tasks>
28

<cycle time>
216

<task times>
1 70
2 59
3 33
4 6
5 1
6 27
7 17
8 62
9 31
10 53
11 21
12 19
13 108
14 52
15 5
16 8
17 97
18 8
19 47
20 67
21 17
22 8
23 3
24 21
25 107
26 3
27 2
28 72

<precedence relations>
1,2
1,3
1,4
1,5
1,8
1,19
1,21
1,22
1,23
1,24
1,26
2,6
2,17
3,28
4,28
5,28
6,7
7,18
8,9
9,10
10,11
10,12
11,15
12,13
13,14
13,16
14,28
15,28
16,28
17,28
18,28
19,20
20,28
21,28
22,28
23,28
24,25
25,28
26,27
27,28

<setup times forward>
1,3:1
1,4:1
1,19:3
1,21:1
1,22:2
1,23:1
2,3:1
2,4:1
2,6:3
2,9:3
2,10:3
2,11:3
2,12:3
2,13:2
2,14:1
2,15:1
2,16:1
2,17:2
2,19:3
2,20:1
2,21:1
2,22:2
2,23:1
2,25:1
2,27:2
3,2:1
3,5:1
3,6:2
3,7:2
3,8:1
3,9:2
3,10:2
3,11:2
3,12:2
3,13:3
3,17:3
3,19:2
3,22:3
3,24:1
3,26:1
3,27:3
4,2:1
4,5:1
4,6:2
4,7:2
4,8:1
4,9:2
4,10:2
4,11:2
4,12:2
4,13:3
4,17:3
4,19:2
4,22:3
4,24:1
4,26:1
4,27:3
5,3:1
5,4:1
5,6:3
5,7:3
5,9:3
5,10:3
5,11:3
5,12:3
5,13:2
5,14:1
5,15:1
5,16:1
5,17:2
5,18:1
5,19:3
5,20:1
5,21:1
5,22:2
5,23:1
5,25:1
5,27:2
5,28:1
6,3:2
6,4:2
6,5:3
6,8:3
6,13:5
6,14:2
6,15:2
6,16:2
6,17:5
6,20:2
6,21:2
6,22:5
6,23:2
6,24:3
6,25:2
6,26:3
6,27:5
7,3:2
7,4:2
7,5:3
7,8:3
7,13:5
7,14:2
7,15:2
7,16:2
7,17:5
7,18:2
7,20:2
7,21:2
7,22:5
7,23:2
7,24:3
7,25:2
7,26:3
7,27:5
8,3:1
8,4:1
8,6:3
8,7:3
8,9:3
8,17:2
8,18:1
8,19:3
8,20:1
8,21:1
8,22:2
8,23:1
8,25:1
8,27:2
9,2:3
9,3:2
9,4:2
9,5:3
9,17:5
9,18:2
9,20:2
9,21:2
9,22:5
9,23:2
9,24:3
9,25:2
9,26:3
9,27:5
10,2:3
10,3:2
10,4:2
10,5:3
10,17:5
10,18:2
10,20:2
10,21:2
10,22:5
10,23:2
10,24:3
10,25:2
10,26:3
10,27:5
11,2:3
11,3:2
11,4:2
11,5:3
11,13:5
11,14:2
11,15:2
11,16:2
11,17:5
11,18:2
11,20:2
11,21:2
11,22:5
11,23:2
11,24:3
11,25:2
11,26:3
11,27:5
12,2:3
12,3:2
12,4:2
12,5:3
12,13:5
12,15:2
12,17:5
12,18:2
12,20:2
12,21:2
12,22:5
12,23:2
12,24:3
12,25:2
12,26:3
12,27:5
13,2:2
13,3:3
13,4:3
13,5:2
13,6:5
13,7:5
13,11:5
13,14:3
13,15:3
13,16:3
13,18:3
13,19:5
13,20:3
13,21:3
13,23:3
13,24:2
13,25:3
13,26:2
14,2:1
14,5:1
14,6:2
14,7:2
14,11:2
14,17:3
14,19:2
14,22:3
14,24:1
14,26:1
14,27:3
15,2:1
15,5:1
15,6:2
15,7:2
15,12:2
15,13:3
15,17:3
15,19:2
15,22:3
15,24:1
15,26:1
15,27:3
16,2:1
16,5:1
16,6:2
16,7:2
16,11:2
16,17:3
16,19:2
16,22:3
16,24:1
16,26:1
16,27:3
17,3:3
17,4:3
17,5:2
17,6:5
17,7:5
17,8:2
17,9:5
17,10:5
17,11:5
17,12:5
17,14:3
17,15:3
17,16:3
17,18:3
17,19:5
17,20:3
17,21:3
17,23:3
17,24:2
17,25:3
17,26:2
17,28:3
18,5:1
18,8:1
18,9:2
18,10:2
18,11:2
18,12:2
18,13:3
18,17:3
18,19:2
18,22:3
18,24:1
18,26:1
18,27:3
19,2:3
19,3:2
19,4:2
19,5:3
19,8:3
19,13:5
19,14:2
19,15:2
19,16:2
19,17:5
19,18:2
19,20:2
19,21:2
19,22:5
19,23:2
19,24:3
19,25:2
19,26:3
19,27:5
20,2:1
20,5:1
20,6:2
20,7:2
20,8:1
20,9:2
20,10:2
20,11:2
20,12:2
20,13:3
20,17:3
20,22:3
20,24:1
20,26:1
20,27:3
21,2:1
21,5:1
21,6:2
21,7:2
21,8:1
21,9:2
21,10:2
21,11:2
21,12:2
21,13:3
21,17:3
21,19:2
21,22:3
21,24:1
21,26:1
21,27:3
22,2:2
22,3:3
22,4:3
22,5:2
22,6:5
22,7:5
22,8:2
22,9:5
22,10:5
22,11:5
22,12:5
22,14:3
22,15:3
22,16:3
22,18:3
22,19:5
22,20:3
22,21:3
22,23:3
22,24:2
22,25:3
22,26:2
22,28:3
23,2:1
23,5:1
23,6:2
23,7:2
23,8:1
23,9:2
23,10:2
23,11:2
23,12:2
23,13:3
23,17:3
23,19:2
23,22:3
23,24:1
23,26:1
23,27:3
24,3:1
24,4:1
24,6:3
24,7:3
24,9:3
24,10:3
24,11:3
24,12:3
24,13:2
24,14:1
24,15:1
24,16:1
24,17:2
24,18:1
24,19:3
24,20:1
24,21:1
24,22:2
24,23:1
24,25:1
24,27:2
25,2:1
25,5:1
25,6:2
25,7:2
25,8:1
25,9:2
25,10:2
25,11:2
25,12:2
25,13:3
25,17:3
25,19:2
25,22:3
25,26:1
25,27:3
26,3:1
26,4:1
26,6:3
26,7:3
26,9:3
26,10:3
26,11:3
26,12:3
26,13:2
26,14:1
26,15:1
26,16:1
26,17:2
26,18:1
26,19:3
26,20:1
26,21:1
26,22:2
26,23:1
26,25:1
26,27:2
27,2:2
27,3:3
27,4:3
27,5:2
27,6:5
27,7:5
27,8:2
27,9:5
27,10:5
27,11:5
27,12:5
27,14:3
27,15:3
27,16:3
27,18:3
27,19:5
27,20:3
27,21:3
27,23:3
27,24:2
27,25:3
27,28:3

<setup times backward>
2,13:2
2,22:2
2,27:2
3,1:1
3,2:1
3,5:1
3,8:1
3,13:3
3,17:3
3,22:3
3,24:1
3,26:1
3,27:3
4,1:1
4,2:1
4,5:1
4,8:1
4,13:3
4,17:3
4,22:3
4,24:1
4,26:1
4,27:3
5,13:2
5,17:2
5,22:2
5,27:2
6,1:3
6,2:3
6,3:2
6,4:2
6,5:3
6,8:3
6,13:5
6,14:2
6,15:2
6,16:2
6,17:5
6,20:2
6,21:2
6,22:5
6,23:2
6,24:3
6,25:2
6,26:3
6,27:5
7,1:3
7,2:3
7,3:2
7,4:2
7,5:3
7,8:3
7,13:5
7,14:2
7,15:2
7,16:2
7,17:5
7,20:2
7,21:2
7,22:5
7,23:2
7,24:3
7,25:2
7,26:3
7,27:5
8,17:2
8,22:2
8,27:2
9,1:3
9,2:3
9,3:2
9,4:2
9,5:3
9,8:3
9,17:5
9,18:2
9,20:2
9,21:2
9,22:5
9,23:2
9,24:3
9,25:2
9,26:3
9,27:5
10,1:3
10,2:3
10,3:2
10,4:2
10,5:3
10,8:3
10,17:5
10,18:2
10,20:2
10,21:2
10,22:5
10,23:2
10,24:3
10,25:2
10,26:3
10,27:5
11,1:3
11,2:3
11,3:2
11,4:2
11,5:3
11,8:3
11,13:5
11,14:2
11,16:2
11,17:5
11,18:2
11,20:2
11,21:2
11,22:5
11,23:2
11,24:3
11,25:2
11,26:3
11,27:5
12,1:3
12,2:3
12,3:2
12,4:2
12,5:3
12,8:3
12,15:2
12,17:5
12,18:2
12,20:2
12,21:2
12,22:5
12,23:2
12,24:3
12,25:2
12,26:3
12,27:5
14,1:1
14,2:1
14,5:1
14,8:1
14,13:3
14,17:3
14,22:3
14,24:1
14,26:1
14,27:3
15,1:1
15,2:1
15,5:1
15,8:1
15,13:3
15,17:3
15,22:3
15,24:1
15,26:1
15,27:3
16,1:1
16,2:1
16,5:1
16,8:1
16,13:3
16,17:3
16,22:3
16,24:1
16,26:1
16,27:3
18,1:1
18,2:1
18,5:1
18,8:1
18,13:3
18,17:3
18,22:3
18,24:1
18,26:1
18,27:3
19,1:3
19,2:3
19,3:2
19,4:2
19,5:3
19,8:3
19,13:5
19,14:2
19,15:2
19,16:2
19,17:5
19,18:2
19,21:2
19,22:5
19,23:2
19,24:3
19,25:2
19,26:3
19,27:5
20,1:1
20,2:1
20,5:1
20,8:1
20,13:3
20,17:3
20,22:3
20,24:1
20,26:1
20,27:3
21,1:1
21,2:1
21,5:1
21,8:1
21,13:3
21,17:3
21,22:3
21,24:1
21,26:1
21,27:3
23,1:1
23,2:1
23,5:1
23,8:1
23,13:3
23,17:3
23,22:3
23,24:1
23,26:1
23,27:3
24,13:2
24,17:2
24,22:2
24,27:2
25,1:1
25,2:1
25,5:1
25,8:1
25,13:3
25,17:3
25,22:3
25,24:1
25,26:1
25,27:3
26,13:2
26,17:2
26,22:2
28,1:1
28,2:1
28,5:1
28,8:1
28,13:3
28,17:3
28,22:3
28,24:1
28,26:1
28,27:3

<end>

<optimal SALBP-1 value>
5


<rand seed>
467321153

<Lower Bounds>
Lm1=5
Lms1=5
Lm2=1
Lm3=2
Lm4=5
Best=5

<Optimal Stations (Iterations: 10)>
6
